
  12    4
  10   10   10   10

   0   0   0   0   0   2 2 4 
   8  10  10  10  10   2 7 3 
   6  10  10  10  10   2 6 5 
   1  10  10  10  10   1 5 
   4  10  10  10  10   2 9 8 
   3  10  10  10  10   2 9 8 
   4  10  10  10  10   2 9 8 
   4  10  10  10  10   1 10 
   5  10  10  10  10   1 10 
   3  10  10  10  10   1 11 
  10  10  10  10  10   1 12
   0   0   0   0   0   0 
